qbf_easy_train/easy_2138_UNSAT.qdimacs
p cnf 30 81
a 17 4 0
e 1 2 3 5 6 7 8 9 10 11 12 13 14 15 16 18 19 20 21 22 23 24 25 26 27 28 29 30 0
-4 2 0
-4 -3 0
-2 3 4 0
-6 4 0
-6 -5 0
-4 5 6 0
-1 -6 -7 0
1 6 -7 0
-1 6 7 0
1 -6 7 0
-7 8 -9 0
7 -8 -9 0
-7 -8 9 0
7 8 9 0
10 5 0
10 8 0
-5 -8 -10 0
11 -10 0
11 6 0
10 -6 -11 0
9 -11 -12 0
-9 11 -12 0
9 11 12 0
-9 -11 12 0
-13 2 0
-13 4 0
-2 -4 13 0
-14 -5 -15 0
14 5 -15 0
-14 5 15 0
14 -5 15 0
-16 -15 0
-16 -14 0
15 14 16 0
-17 -13 0
-17 16 0
13 -16 17 0
-19 18 0
-19 15 0
-18 -15 19 0
20 -17 0
20 -19 0
17 19 -20 0
21 12 0
21 -20 0
-12 20 -21 0
23 -16 0
23 -19 0
16 19 -23 0
22 -23 -24 0
-22 23 -24 0
22 23 24 0
-22 -23 24 0
25 -21 0
25 -24 0
21 24 -25 0
26 1 0
26 14 0
-1 -14 -26 0
27 17 0
27 -26 0
-17 26 -27 0
19 18 -28 0
-19 -18 -28 0
19 -18 28 0
-19 18 28 0
-27 -28 -29 0
27 28 -29 0
-27 28 29 0
27 -28 29 0
30 25 0
30 -29 0
-25 29 -30 0
27 -20 1 -25 -2 -26 0
-29 3 -12 -16 0
-15 -11 -23 -2 0
-20 7 12 0
2 12 18 -26 0
12 13 22 0
28 20 -6 13 -26 0
30 0
