sat_easy_train/easy_2138_UNSAT.dimacs
p cnf 134 470
-3 1 0
-3 -2 0
-1 2 3 0
4 -5 -6 0
-4 5 -6 0
4 5 6 0
-4 -5 6 0
-3 -6 -7 0
3 6 -7 0
-3 6 7 0
3 -6 7 0
-5 -8 -9 0
5 8 -9 0
-5 8 9 0
5 -8 9 0
-12 10 0
-12 -11 0
-10 11 12 0
-13 -9 0
-13 12 0
9 -12 13 0
14 7 0
14 -13 0
-7 13 -14 0
15 -14 0
15 14 0
18 11 0
18 -17 0
-11 17 -18 0
18 -10 -19 0
-18 10 -19 0
18 10 19 0
-18 -10 19 0
-13 6 -21 0
13 -6 -21 0
-13 -6 21 0
13 6 21 0
20 21 -22 0
-20 -21 -22 0
20 -21 22 0
-20 21 22 0
23 -19 0
23 22 0
19 -22 -23 0
24 9 0
24 5 0
-9 -5 -24 0
23 -24 -25 0
-23 24 -25 0
23 24 25 0
-23 -24 25 0
26 16 0
26 25 0
-16 -25 -26 0
27 -15 0
27 -26 0
15 26 -27 0
-28 12 0
-28 -24 0
-12 24 28 0
-28 -10 -29 0
28 10 -29 0
-28 10 29 0
28 -10 29 0
-30 5 0
-30 -29 0
-5 29 30 0
17 24 -31 0
-17 -24 -31 0
17 -24 31 0
-17 24 31 0
32 31 0
32 3 0
-31 -3 -32 0
33 -30 0
33 -32 0
30 32 -33 0
-35 23 0
-35 29 0
-23 -29 35 0
34 35 -36 0
-34 -35 -36 0
34 -35 36 0
-34 35 36 0
-19 -37 -38 0
19 37 -38 0
-19 37 38 0
19 -37 38 0
-38 -5 -39 0
38 5 -39 0
-38 5 39 0
38 -5 39 0
39 -24 -40 0
-39 24 -40 0
39 24 40 0
-39 -24 40 0
41 -25 0
41 -9 0
25 9 -41 0
-42 -2 0
-42 -18 0
2 18 42 0
44 43 0
44 43 0
-43 -44 0
-44 37 -45 0
44 -37 -45 0
-44 -37 45 0
44 37 45 0
46 42 0
46 45 0
-42 -45 -46 0
41 46 -47 0
-41 -46 -47 0
41 -46 47 0
-41 46 47 0
-48 -40 0
-48 47 0
40 -47 48 0
49 36 0
49 -48 0
-36 48 -49 0
20 8 -50 0
-20 -8 -50 0
20 -8 50 0
-20 8 50 0
-44 50 -51 0
44 -50 -51 0
-44 -50 51 0
44 50 51 0
49 -51 -52 0
-49 51 -52 0
49 51 52 0
-49 -51 52 0
53 6 0
53 10 0
-6 -10 -53 0
54 4 0
54 -53 0
-4 53 -54 0
55 -54 0
55 -10 0
54 10 -55 0
52 55 -56 0
-52 -55 -56 0
52 -55 56 0
-52 55 56 0
-10 -9 -57 0
10 9 -57 0
-10 9 57 0
10 -9 57 0
56 -57 -58 0
-56 57 -58 0
56 57 58 0
-56 -57 58 0
-33 58 -59 0
33 -58 -59 0
-33 -58 59 0
33 58 59 0
-50 34 -60 0
50 -34 -60 0
-50 -34 60 0
50 34 60 0
62 61 0
62 20 0
-61 -20 -62 0
-63 -62 0
-63 12 0
62 -12 63 0
29 5 -64 0
-29 -5 -64 0
29 -5 64 0
-29 5 64 0
64 35 -65 0
-64 -35 -65 0
64 -35 65 0
-64 35 65 0
63 -65 -66 0
-63 65 -66 0
63 65 66 0
-63 -65 66 0
67 60 0
67 66 0
-60 -66 -67 0
68 43 0
68 4 0
-43 -4 -68 0
4 3 -69 0
-4 -3 -69 0
4 -3 69 0
-4 3 69 0
-62 -69 -70 0
62 69 -70 0
-62 69 70 0
62 -69 70 0
-71 -68 0
-71 -70 0
68 70 71 0
35 -38 -72 0
-35 38 -72 0
35 38 72 0
-35 -38 72 0
-62 2 -73 0
62 -2 -73 0
-62 -2 73 0
62 2 73 0
-74 30 0
-74 -29 0
-30 29 74 0
-73 74 -75 0
73 -74 -75 0
-73 -74 75 0
73 74 75 0
-76 72 0
-76 75 0
-72 -75 76 0
77 71 0
77 76 0
-71 -76 -77 0
-79 17 0
-79 78 0
-17 -78 79 0
-18 -34 -80 0
18 34 -80 0
-18 34 80 0
18 -34 80 0
8 -20 -81 0
-8 20 -81 0
8 20 81 0
-8 -20 81 0
4 81 -82 0
-4 -81 -82 0
4 -81 82 0
-4 81 82 0
-83 -82 0
-83 78 0
82 -78 83 0
84 -83 0
84 -45 0
83 45 -84 0
-85 80 0
-85 -84 0
-80 84 85 0
-86 79 0
-86 -85 0
-79 85 86 0
-87 77 0
-87 -86 0
-77 86 87 0
-67 -87 -88 0
67 87 -88 0
-67 87 88 0
67 -87 88 0
-59 88 -89 0
59 -88 -89 0
-59 -88 89 0
59 88 89 0
90 -27 0
90 89 0
27 -89 -90 0
-91 -17 0
-91 16 0
17 -16 91 0
-92 -50 0
-92 -91 0
50 91 92 0
53 78 -93 0
-53 -78 -93 0
53 -78 93 0
-53 78 93 0
-94 -34 0
-94 78 0
34 -78 94 0
-93 94 -95 0
93 -94 -95 0
-93 -94 95 0
93 94 95 0
-44 6 -96 0
44 -6 -96 0
-44 -6 96 0
44 6 96 0
97 95 0
97 -96 0
-95 96 -97 0
92 -97 -98 0
-92 97 -98 0
92 97 98 0
-92 -97 98 0
-90 -98 -99 0
90 98 -99 0
-90 98 99 0
90 -98 99 0
29 -53 -100 0
-29 53 -100 0
29 53 100 0
-29 -53 100 0
101 21 0
101 -44 0
-21 44 -101 0
101 18 -102 0
-101 -18 -102 0
101 -18 102 0
-101 18 102 0
-103 100 0
-103 -102 0
-100 102 103 0
104 1 0
104 -45 0
-1 45 -104 0
105 22 0
105 -104 0
-22 104 -105 0
-106 64 0
-106 42 0
-64 -42 106 0
107 106 0
107 -61 0
-106 61 -107 0
-105 107 -108 0
105 -107 -108 0
-105 -107 108 0
105 107 108 0
61 53 -109 0
-61 -53 -109 0
61 -53 109 0
-61 53 109 0
110 35 0
110 78 0
-35 -78 -110 0
-111 -109 0
-111 -110 0
109 110 111 0
-37 35 -112 0
37 -35 -112 0
-37 -35 112 0
37 35 112 0
113 24 0
113 42 0
-24 -42 -113 0
-114 -112 0
-114 113 0
112 -113 114 0
111 -114 -115 0
-111 114 -115 0
111 114 115 0
-111 -114 115 0
108 -115 -116 0
-108 115 -116 0
108 115 116 0
-108 -115 116 0
-6 -31 -117 0
6 31 -117 0
-6 31 117 0
6 -31 117 0
-93 -117 -118 0
93 117 -118 0
-93 117 118 0
93 -117 118 0
62 38 -119 0
-62 -38 -119 0
62 -38 119 0
-62 38 119 0
120 6 0
120 -16 0
-6 16 -120 0
-121 -119 0
-121 -120 0
119 120 121 0
-118 121 -122 0
118 -121 -122 0
-118 -121 122 0
118 121 122 0
-123 -117 0
-123 12 0
117 -12 123 0
-125 -81 0
-125 124 0
81 -124 125 0
-7 -25 -126 0
7 25 -126 0
-7 25 126 0
7 -25 126 0
125 126 -127 0
-125 -126 -127 0
125 -126 127 0
-125 126 127 0
128 -123 0
128 127 0
123 -127 -128 0
-6 1 -129 0
6 -1 -129 0
-6 -1 129 0
6 1 129 0
-130 128 0
-130 -129 0
-128 129 130 0
-131 -122 0
-131 -130 0
122 130 131 0
132 -116 0
132 131 0
116 -131 -132 0
133 103 0
133 -132 0
-103 132 -133 0
-134 -99 0
-134 -133 0
99 133 134 0
47 -91 0
-84 -74 -34 7 114 0
77 -60 43 -125 0
-108 -120 100 0
18 106 119 0
20 -6 -59 -45 109 0
-122 -17 32 0
82 108 -35 -120 -1 -112 0
11 -83 12 -42 20 -103 0
-69 94 0
-23 3 -92 126 -69 0
-115 -121 101 0
108 127 -128 57 80 -16 0
-61 15 34 25 0
46 70 0
-2 -114 0
28 -77 41 106 14 32 0
71 -107 48 30 0
-8 129 -133 113 45 -27 0
119 132 0
26 133 -122 0
-109 121 -64 128 -75 -28 0
15 -106 -109 41 0
-10 44 0
134 9 94 -32 98 0
-24 -121 -99 55 0
-98 128 -71 -129 0
36 -112 134 -38 0
130 108 -81 100 -24 -40 0
-75 -126 -19 0
22 -89 -19 -53 97 0
85 -70 42 132 0
104 19 87 35 -89 -15 0
-75 5 34 0
-76 111 75 -57 -46 -71 0
13 51 111 -10 94 0
-117 -57 0
-8 63 38 0
-24 -66 -134 0
112 22 -47 0
10 26 -51 -105 0
2 5 -82 0
-114 -35 45 42 -119 0
51 61 8 0
134 -21 52 69 0
79 12 0
17 -86 -130 0
-37 15 -12 -126 0
13 -37 126 0
-117 75 121 -43 90 -44 0
-7 -106 -62 -105 -51 -37 0
67 -120 0
-35 -3 -80 0
-55 -13 63 -114 -124 0
54 -67 -78 99 101 -28 0
-57 -46 -66 74 -32 -85 0
28 -60 -83 113 -13 33 0
96 124 -30 -92 -22 -26 0
23 -120 -69 53 0
39 -61 -133 0
134 -24 -54 0
134 0
